unknown
(model
; cardinality of BoundSet is 2
(declare-sort BoundSet 0)
; rep: @uc_BoundSet_0
; rep: @uc_BoundSet_1
; cardinality of UnboundSet is 1
(declare-sort UnboundSet 0)
(declare-fun groundTerm_3 () UnboundSet)
(define-fun IsAGirl ((BOUND_VARIABLE_417 BoundSet)) Bool true)
(define-fun IsPlaying ((BOUND_VARIABLE_417 BoundSet)) Bool true)
(define-fun IsPlayingViolin ((BOUND_VARIABLE_417 BoundSet)) Bool true)
(define-fun IsAnInstrument ((BOUND_VARIABLE_417 BoundSet)) Bool false)
)
sat
(model
; cardinality of BoundSet is 1
(declare-sort BoundSet 0)
; rep: @uc_BoundSet_0
; cardinality of UnboundSet is 1
(declare-sort UnboundSet 0)
(declare-fun groundTerm_5 () UnboundSet)
(define-fun IsAGirl ((BOUND_VARIABLE_448 BoundSet)) Bool true)
(define-fun IsPlaying ((BOUND_VARIABLE_448 BoundSet)) Bool true)
(define-fun IsPlayingViolin ((BOUND_VARIABLE_448 BoundSet)) Bool true)
(define-fun IsAnInstrument ((BOUND_VARIABLE_448 BoundSet)) Bool false)
)
